results/x-long/X-n190-k8.vrp_seed-46.out
16983	1176
