results/x-long/X-n190-k8.vrp_seed-46.vrp.sol
Route #1: 118 31 46 92 81 145 115 144 94 50 21 178 69 164 111 74 161 134 132 173 157 166 170
Route #2: 105 19 188 57 63 66 171 13 120 168 110 4 163 128 34 103 108 129 156 133 72 139 149 45 99 131
Route #3: 102 68 179 62 59 96 3 15 27 187 124 140 189 154 53 20 65 114 9 91 55 121 135
Route #4: 112 169 78 22 77 86 125 137 151 174 48 54 126 181 41 152 87 186 146 71 52 101 47 5 176 12 24 97 143 95
Route #5: 73 43 58 28 138 85 80 147 150 30 39 36 38 2 6 35 89 104 142 159 10
Route #6: 109 130 56 8 100 42 90 76 40 32 61 180 153 84 18 185 70 141 98 148 177 123 167 136 183 25 64
Route #7: 14 16 67 51 93 75 158 23 113 107 33 162 7 155 17 79 60 116 82 122 11 175 117 26 49 119 106
Route #8: 37 29 83 182 160 184 1 165 88 44 127 172
Cost 16983.000000